
Gurobi 13.0.2 (win64) logging started Thu Jul 23 16:40:49 2026

Set parameter LogFile to value "E:\codes\ExactEBRP\results\gf_gurobi_performance_recovery_round29\runs\stage2__high_imbalance_seed5202__c4_candidate__300s\external\native_logs\L1.1.0.0.1.1.0.0.1_terminal_mip.gurobi.log"
Gurobi Optimizer version 13.0.2 build v13.0.2rc1 (win64 - Windows 10.0 (19045.2))

CPU model: 12th Gen Intel(R) Core(TM) i7-12700KF, instruction set [SSE2|AVX|AVX2]
Thread count: 12 physical cores, 20 logical processors, using up to 1 threads

Non-default parameters:
TimeLimit  268.0018408
MIPGap  0
MIPGapAbs  0
LogToConsole  0
Threads  1

Optimize a model with 11923 rows, 3380 columns and 67410 nonzeros (Min)
Model fingerprint: 0xb77b0e78
Model has 21 linear objective coefficients
Variable types: 1687 continuous, 1693 integer (1493 binary)
Coefficient statistics:
  Matrix range     [2e-02, 2e+04]
  Objective range  [2e-02, 1e+00]
  Bounds range     [4e-01, 7e+02]
  RHS range        [4e-01, 5e+04]

Presolve removed 1699 rows and 64 columns
Presolve time: 0.18s
Presolved: 10224 rows, 3316 columns, 74573 nonzeros
Variable types: 1641 continuous, 1675 integer (1496 binary)

Root relaxation: objective 1.017139e+00, 3504 iterations, 0.18 seconds (0.48 work units)

    Nodes    |    Current Node    |     Objective Bounds      |     Work
 Expl Unexpl |  Obj  Depth IntInf | Incumbent    BestBd   Gap | It/Node Time

     0     0    1.01714    0  218          -    1.01714      -     -    0s
     0     0    1.05219    0  228          -    1.05219      -     -    0s
     0     0    1.07880    0  306          -    1.07880      -     -    1s
     0     0    1.07925    0  293          -    1.07925      -     -    1s
     0     0    1.08831    0  299          -    1.08831      -     -    1s
     0     0    1.08866    0  291          -    1.08866      -     -    1s
     0     0    1.09017    0  318          -    1.09017      -     -    2s
     0     0    1.09045    0  319          -    1.09045      -     -    2s
     0     0    1.09381    0  339          -    1.09381      -     -    3s
     0     0    1.09431    0  338          -    1.09431      -     -    3s
     0     0    1.09496    0  351          -    1.09496      -     -    4s
     0     0    1.09634    0  353          -    1.09634      -     -    4s
     0     0    1.09777    0  300          -    1.09777      -     -    5s
     0     0    1.09804    0  348          -    1.09804      -     -    5s
     0     0    1.09831    0  335          -    1.09831      -     -    5s
     0     0    1.09838    0  344          -    1.09838      -     -    5s
     0     0    1.09859    0  369          -    1.09859      -     -    6s
     0     0    1.09866    0  365          -    1.09866      -     -    6s
     0     0    1.09927    0  318          -    1.09927      -     -    7s
     0     0    1.09957    0  362          -    1.09957      -     -    7s
     0     0    1.09977    0  386          -    1.09977      -     -    7s
     0     0    1.09986    0  369          -    1.09986      -     -    7s
     0     0    1.10036    0  375          -    1.10036      -     -    8s
     0     0    1.10045    0  371          -    1.10045      -     -    8s
     0     0    1.10053    0  363          -    1.10053      -     -    9s
     0     0    1.10059    0  361          -    1.10059      -     -    9s
     0     0    1.10085    0  336          -    1.10085      -     -   10s
     0     0    1.10089    0  346          -    1.10089      -     -   10s
     0     0    1.10118    0  359          -    1.10118      -     -   10s
     0     0    1.10126    0  388          -    1.10126      -     -   11s
     0     0    1.10137    0  385          -    1.10137      -     -   12s
     0     0    1.10142    0  379          -    1.10142      -     -   12s
     0     0    1.10149    0  401          -    1.10149      -     -   13s
     0     0    1.10151    0  391          -    1.10151      -     -   13s
     0     0    1.10162    0  387          -    1.10162      -     -   14s
     0     0    1.10166    0  376          -    1.10166      -     -   14s
     0     0    1.10174    0  411          -    1.10174      -     -   15s
     0     0    1.10175    0  394          -    1.10175      -     -   15s
     0     0    1.10180    0  402          -    1.10180      -     -   15s
     0     0    1.10183    0  394          -    1.10183      -     -   15s
     0     0    1.10184    0  376          -    1.10184      -     -   15s
     0     0    1.10184    0  376          -    1.10184      -     -   16s
     0     0    1.10184    0  365          -    1.10184      -     -   16s
     0     2    1.10184    0  364          -    1.10184      -     -   17s
     3     5    1.10735    2  276          -    1.10184      -   811   20s
    24    24    1.11366   16  267          -    1.10184      -  1164   25s
    40    39    1.11774   28  210          -    1.10184      -   913   30s
   226   217    1.12328    7  225          -    1.10241      -   323   35s
   342   332    1.12839  119  272          -    1.10241      -   264   40s
   501   473 infeasible  138               -    1.10276      -   216   45s
   543   498    1.13296  112  345          -    1.10374      -   216   51s
   547   500    1.12727   87  324          -    1.10374      -   214   56s
   551   503    1.12845  182  384          -    1.10374      -   213   61s
   554   505    1.13078  107  376          -    1.10520      -   212   65s
   558   508    1.12518   37  332          -    1.10584      -   210   71s
   562   510    1.12647  101  352          -    1.10613      -   209   75s
   565   512    1.12548   55  428          -    1.10630      -   207   80s
   570   516    1.10704   10  377          -    1.10656      -   206   85s
   578   521    1.12834  189  409          -    1.10658      -   203   90s
   583   526    1.11331   17  316          -    1.10666      -   328   95s
   588   530    1.12149   19  256          -    1.10987      -   345  100s
   594   534    1.13228   22  201          -    1.10987      -   348  105s
   602   537    1.13238   26  202          -    1.10987      -   352  110s
   636   544    1.11774   20  271          -    1.10993      -   378  115s
   675   548 infeasible   39               -    1.10993      -   385  120s
   705   548    1.14086   26  196          -    1.11299      -   397  127s
   722   549    1.15425   35  239          -    1.11299      -   393  130s
   748   554    1.13232   27  229          -    1.11596      -   421  135s
   812   549    1.11860   24  203          -    1.11604      -   415  140s
   855   554    1.15149   45  162          -    1.11761      -   425  145s
   903   557    1.14155   40  180          -    1.11830      -   434  150s
   950   578    1.12255   19  224          -    1.11830      -   419  157s
   972   587    1.14000   31  206          -    1.11830      -   427  160s
  1068   649    1.15059  117  153          -    1.11830      -   402  165s
  1143   675    1.14798   31  232          -    1.11902      -   395  170s
  1181   684    1.13398   32  210          -    1.11994      -   395  175s
  1228   689    1.15409   42  187          -    1.12055      -   405  180s
  1284   681    1.14076   24  245          -    1.12119      -   414  185s
  1312   685    1.13651   30  232          -    1.12131      -   422  192s
  1316   686    1.14059   29  257          -    1.12131      -   423  195s
  1388   704 infeasible   56               -    1.12144      -   414  200s
  1444   735    1.14744   49  122          -    1.12149      -   414  205s
  1493   734    1.15337   25  229          -    1.12171      -   423  210s
  1533   745    1.13611   24  224          -    1.12187      -   424  215s
  1592   750    1.14171   22  253          -    1.12275      -   424  220s
  1662   777    1.14821   59  146          -    1.12310      -   418  225s
  1730   788    1.13547   27  272          -    1.12448      -   417  230s
  1774   791    1.14309   32  204          -    1.12448      -   420  235s
  1841   796    1.14079   27  274          -    1.12464      -   420  240s
  1895   810    1.14452   28  254          -    1.12466      -   422  245s
  1933   805    1.14499   35  215          -    1.12569      -   427  251s
  1977   813    1.15170   39  205          -    1.12576      -   428  255s
  2019   809    1.14623   34  249          -    1.12657      -   432  260s
  2084   795    1.14335   32  220          -    1.12675      -   433  265s

Cutting planes:
  Learned: 13
  Cover: 39
  Implied bound: 91
  Projected implied bound: 17
  Clique: 17
  MIR: 113
  StrongCG: 5
  Flow cover: 200
  GUB cover: 6
  Network: 22
  RLT: 5
  Relax-and-lift: 20

Explored 2115 nodes (978810 simplex iterations) in 268.01 seconds (519.30 work units)
Thread count was 1 (of 20 available processors)

Solution count 0

Time limit reached
Best objective -, best bound 1.126805522187e+00, gap -

User-callback calls 65455, time in user-callback 0.01 sec
